50 121
11 17 2
7 18 2
9 19 1
7 19 2
8 29 2
7 13 2
9 18 2
9 25 1
8 13 2
10 13 3
6 32 4
5 19 4
10 17 1
8 15 2
7 26 4
6 17 4
6 14 4
3 9 2
4 17 1
7 28 2
11 30 1
8 23 1
12 28 1
13 17 2
5 18 2
8 10 1
9 17 2
13 26 10
14 14 1
28 35 4
29 35 1
29 33 3
14 35 2
13 33 2
9 32 5
11 26 4
8 18 2
19 32 2
15 24 2
11 15 2
11 34 2
24 34 3
17 30 2
15 17 2
18 32 2
19 31 1
9 33 2
13 14 2
8 12 4
15 33 4
50 100 
50 100 
50 100 
50 100 
50 100 
50 100 
50 100 
50 100 
50 100 
50 100 
50 100 
50 100 
50 100 
50 100 
50 100 
50 100 
50 100 
50 100 
50 100 
50 100 
50 100 
50 100 
50 100 
50 100 
50 100 
50 100 
50 100 
50 100 
50 100 
50 100 
50 100 
50 100 
50 100 
50 100 
50 100 
50 100 
50 100 
50 100 
50 100 
50 100 
50 100 
50 100 
50 100 
50 100 
50 100 
50 100 
50 100 
50 100 
50 100 
50 100 
50 100 
50 100 
50 100 
50 100 
50 100 
50 100 
50 100 
50 100 
50 100 
50 100 
50 100 
50 100 
50 100 
50 100 
50 100 
50 100 
50 100 
50 100 
50 100 
50 100 
50 100 
50 100 
50 100 
50 100 
50 100 
50 100 
50 100 
50 100 
50 100 
50 100 
50 100 
50 100 
50 100 
50 100 
50 100 
50 100 
50 100 
50 100 
50 100 
50 100 
50 100 
50 100 
50 100 
50 100 
50 100 
50 100 
50 100 
50 100 
50 100 
50 100 
50 100 
50 100 
50 100 
50 100 
50 100 
50 100 
50 100 
50 100 
50 100 
50 100 
50 100 
50 100 
50 100 
50 100 
50 100 
50 100 
50 100 
50 100 
50 100 
50 100 
50 100 
